Instance: Data/Instances_txt/inst_60_30_1.txt
SetUpTime: 17.83375310897827

Gurobi 10.0.1 (mac64[x86]) logging started Di  1 Aug 16:30:29 2023

Set parameter LogFile to value "Output/MILP_inst_60_30_1_2023-08-01_16-28-50.txt"
Set parameter TimeLimit to value 2700

Gurobi 10.0.1 (mac64[x86]) logging started Di  1 Aug 16:30:29 2023

Set parameter LogFile to value "Output/MILP_inst_60_30_1_2023-08-01_16-28-50.txt"
Gurobi Optimizer version 10.0.1 build v10.0.1rc0 (mac64[x86])

CPU model: Intel(R) Core(TM) i5-1038NG7 CPU @ 2.00GHz
Thread count: 4 physical cores, 8 logical processors, using up to 8 threads

Optimize a model with 121 rows, 26433 columns and 180802 nonzeros
Model fingerprint: 0x8b6ce7dd
Variable types: 0 continuous, 26433 integer (0 binary)
Coefficient statistics:
  Matrix range     [1e+00, 1e+00]
  Objective range  [2e+00, 6e+03]
  Bounds range     [1e+00, 1e+00]
  RHS range        [1e+00, 1e+00]
Presolve removed 0 rows and 7 columns
Presolve time: 0.31s
Presolved: 121 rows, 26426 columns, 180742 nonzeros
Variable types: 0 continuous, 26426 integer (26426 binary)

Root relaxation: objective 1.458138e+04, 2451 iterations, 1.18 seconds (1.62 work units)

    Nodes    |    Current Node    |     Objective Bounds      |     Work
 Expl Unexpl |  Obj  Depth IntInf | Incumbent    BestBd   Gap | It/Node Time

     0     0 14581.3838    0   98          - 14581.3838      -     -    1s
     0     0 14581.6847    0  100          - 14581.6847      -     -    1s
     0     0 14581.8234    0  101          - 14581.8234      -     -    1s
     0     0 14581.9664    0   99          - 14581.9664      -     -    1s
     0     0 14582.0794    0  100          - 14582.0794      -     -    2s
     0     0 14582.1365    0  102          - 14582.1365      -     -    2s
     0     0 14582.1384    0  101          - 14582.1384      -     -    2s
     0     0 14582.1558    0  102          - 14582.1558      -     -    2s
     0     0 14582.1852    0  101          - 14582.1852      -     -    2s
     0     0 14582.1852    0  101          - 14582.1852      -     -    2s
     0     0 14582.1870    0  101          - 14582.1870      -     -    2s
     0     0 14713.5195    0   98          - 14713.5195      -     -    3s
     0     0 14713.8860    0  111          - 14713.8860      -     -    3s
     0     0 14714.0245    0  104          - 14714.0245      -     -    3s
     0     0 14714.0301    0  105          - 14714.0301      -     -    3s
     0     0 14714.0316    0   91          - 14714.0316      -     -    3s
     0     0 14730.7908    0   95          - 14730.7908      -     -    3s
     0     0 14730.9644    0   94          - 14730.9644      -     -    4s
     0     0 14731.0885    0   89          - 14731.0885      -     -    4s
     0     0 14731.1641    0   87          - 14731.1641      -     -    4s
     0     0 14731.1870    0   87          - 14731.1870      -     -    4s
     0     0 14731.2182    0   88          - 14731.2182      -     -    4s
     0     0 14731.2523    0   90          - 14731.2523      -     -    4s
     0     0 14731.2796    0   90          - 14731.2796      -     -    4s
     0     0 14731.2915    0   89          - 14731.2915      -     -    4s
     0     0 14732.0073    0   96          - 14732.0073      -     -    4s
     0     0 14732.0656    0   97          - 14732.0656      -     -    4s
     0     0 14785.4383    0   97          - 14785.4383      -     -    5s
H    0     0                    15160.000000 14785.4383  2.47%     -    6s
     0     0 14845.5730    0  120 15160.0000 14845.5730  2.07%     -    6s
     0     0 14845.5730    0  124 15160.0000 14845.5730  2.07%     -    6s
     0     0 14845.5730    0  126 15160.0000 14845.5730  2.07%     -    6s
     0     0 14845.5730    0  111 15160.0000 14845.5730  2.07%     -    6s
     0     0 14845.5730    0  118 15160.0000 14845.5730  2.07%     -    7s
     0     0 14845.5730    0  118 15160.0000 14845.5730  2.07%     -    7s
     0     0 14845.5730    0  132 15160.0000 14845.5730  2.07%     -    7s
     0     0 14845.5730    0   92 15160.0000 14845.5730  2.07%     -    8s
H    0     0                    15035.000000 14845.5730  1.26%     -    9s
     0     0 14845.5730    0   95 15035.0000 14845.5730  1.26%     -    9s
     0     0 14845.5730    0  103 15035.0000 14845.5730  1.26%     -   10s
H    0     0                    14988.000000 14845.5730  0.95%     -   10s
     0     0 14845.5730    0  113 14988.0000 14845.5730  0.95%     -   10s
     0     0 14845.5730    0  115 14988.0000 14845.5730  0.95%     -   10s
     0     0 14845.5730    0  115 14988.0000 14845.5730  0.95%     -   10s
     0     0 14845.5730    0  115 14988.0000 14845.5730  0.95%     -   10s
     0     0 14845.5730    0  112 14988.0000 14845.5730  0.95%     -   10s
     0     0 14845.5730    0  112 14988.0000 14845.5730  0.95%     -   10s
     0     0 14845.5730    0  111 14988.0000 14845.5730  0.95%     -   10s
     0     0 14845.5730    0  111 14988.0000 14845.5730  0.95%     -   10s
     0     0 14845.5730    0  112 14988.0000 14845.5730  0.95%     -   10s
     0     0 14845.5730    0  110 14988.0000 14845.5730  0.95%     -   10s
     0     0 14845.5730    0  112 14988.0000 14845.5730  0.95%     -   10s
     0     0 14845.5730    0  117 14988.0000 14845.5730  0.95%     -   10s
     0     0 14845.5730    0  115 14988.0000 14845.5730  0.95%     -   10s
     0     0 14845.5730    0  116 14988.0000 14845.5730  0.95%     -   10s
     0     0 14845.5730    0  106 14988.0000 14845.5730  0.95%     -   11s
     0     0 14845.5730    0   98 14988.0000 14845.5730  0.95%     -   11s
     0     0 14845.5730    0  101 14988.0000 14845.5730  0.95%     -   11s
     0     0 14845.5730    0   94 14988.0000 14845.5730  0.95%     -   11s
     0     0 14845.5730    0   98 14988.0000 14845.5730  0.95%     -   11s
     0     0 14845.5730    0   95 14988.0000 14845.5730  0.95%     -   11s
     0     0 14845.5730    0   89 14988.0000 14845.5730  0.95%     -   11s
     0     0 14845.5730    0   87 14988.0000 14845.5730  0.95%     -   11s
     0     0 14845.5730    0   88 14988.0000 14845.5730  0.95%     -   11s
     0     0 14845.5730    0   89 14988.0000 14845.5730  0.95%     -   11s
     0     0 14845.5730    0  123 14988.0000 14845.5730  0.95%     -   12s
H    0     0                    14888.000000 14845.5730  0.28%     -   12s
     0     0 14845.5730    0  117 14888.0000 14845.5730  0.28%     -   12s
     0     0 14845.5730    0  118 14888.0000 14845.5730  0.28%     -   12s
     0     0 14845.5730    0  118 14888.0000 14845.5730  0.28%     -   12s
     0     0 14845.5730    0  115 14888.0000 14845.5730  0.28%     -   12s
     0     0 14845.5730    0  117 14888.0000 14845.5730  0.28%     -   12s
     0     0 14845.5730    0  116 14888.0000 14845.5730  0.28%     -   12s
     0     0 14845.5730    0  120 14888.0000 14845.5730  0.28%     -   12s
     0     0 14845.5730    0  109 14888.0000 14845.5730  0.28%     -   12s
     0     0 14845.5730    0  115 14888.0000 14845.5730  0.28%     -   12s
     0     0 14862.5719    0  117 14888.0000 14862.5719  0.17%     -   12s

Cutting planes:
  Clique: 35
  MIR: 1
  Zero half: 12
  RLT: 76

Explored 1 nodes (13596 simplex iterations) in 12.33 seconds (12.12 work units)
Thread count was 8 (of 8 available processors)

Solution count 4: 14888 14988 15035 15160 

Optimal solution found (tolerance 1.00e-04)
Best objective 1.488800000000e+04, best bound 1.488800000000e+04, gap 0.0000%

User-callback calls 2221, time in user-callback 0.01 sec

=========================

OUTPUT STATISTICS
Relaxed: false
Time since start: 30.796798944473267
SetUpTime: 17.83375310897827
Objective value: 14888.0
Number of variables: 26433
Solving time: 12.947776079177856
